sifdecoder -A pc64.lnx.gfo -st   A5ESSNDL

 Problem name: A5ESSNDL

 Double precision version will be formed

 The objective function uses 2 linear groups
 
 There are 15002 linear equality constraints
 
 There are 10002 free variables
 There are 10000 variables bounded only from below 
 There are 25004 fixed variables
 
 
 File successfully decoded
 CUTEST: tools (double precision version) compiled successfully
 CUTEst: ipopt (double precision version) compiled successfully

******************************************************************************
This program contains Ipopt, a library for large-scale nonlinear optimization.
 Ipopt is released as open source code under the Eclipse Public License (EPL).
         For more information visit http://projects.coin-or.org/Ipopt
******************************************************************************

This is Ipopt version trunk, running with linear solver ma57.

Number of nonzeros in equality constraint Jacobian...:    53022
Number of nonzeros in inequality constraint Jacobian.:        0
Number of nonzeros in Lagrangian Hessian.............:    25002

Total number of variables............................:    20002
                     variables with only lower bounds:    10000
                variables with lower and upper bounds:        0
                     variables with only upper bounds:        0
Total number of equality constraints.................:    15002
Total number of inequality constraints...............:        0
        inequality constraints with only lower bounds:        0
   inequality constraints with lower and upper bounds:        0
        inequality constraints with only upper bounds:        0

iter    objective    inf_pr   inf_du lg(mu)  ||d||  lg(rg) alpha_du alpha_pr  ls
   0  4.9999900e-01 9.92e+01 6.96e-01  -1.0 0.00e+00    -  0.00e+00 0.00e+00   0
Reallocating memory for MA57: lfact (1787740)
   1  4.9435064e-01 9.90e+01 1.19e+00  -1.0 7.62e+01  -4.0 9.95e-04 2.02e-03h  1
   2  6.1946712e-01 9.84e+01 2.22e+00  -1.0 1.03e+01  -4.5 2.04e-03 6.22e-03h  1
   3  2.3082688e+00 9.52e+01 2.81e+00  -1.0 1.08e+01  -5.0 8.64e-03 3.28e-02f  1
   4  1.6984509e+02 4.39e+01 5.86e+00  -1.0 9.64e+00  -5.4 4.81e-02 5.38e-01f  1
   5  1.6515525e+02 3.82e+01 1.72e+01  -1.0 5.08e+01  -5.9 6.92e-01 1.31e-01f  1
   6  2.4481986e+02 1.66e+01 8.49e+00  -1.0 7.80e+00  -6.4 5.94e-01 5.65e-01f  1
   7  3.2162583e+02 7.21e+00 1.22e+02  -1.0 3.33e+00  -6.9 1.67e-01 5.66e-01h  1
   8  3.5205299e+02 4.29e+00 3.40e+02  -1.0 2.26e+00  -7.3 6.23e-02 4.05e-01h  1
   9  3.6640771e+02 2.98e+00 2.39e+02  -1.0 1.91e+00  -7.8 3.28e-01 3.06e-01h  1
iter    objective    inf_pr   inf_du lg(mu)  ||d||  lg(rg) alpha_du alpha_pr  ls
  10  3.8070563e+02 1.73e+00 4.79e+03  -1.0 9.08e-01  -8.3 1.00e+00 4.17e-01h  1
  11  3.9589231e+02 4.66e-01 6.05e+04  -1.0 2.39e-01  -8.8 5.72e-02 7.31e-01h  1
  12  3.9817680e+02 2.78e-01 1.06e+05  -1.0 1.44e-01  -9.2 2.84e-02 4.03e-01h  1
  13  3.9906540e+02 2.05e-01 7.81e+04  -1.0 1.49e-01  -9.7 2.39e-02 2.62e-01h  1
  14  3.9959170e+02 1.62e-01 3.36e+04  -1.0 1.41e-01 -10.2 1.74e-02 2.10e-01h  1
  15  3.9997402e+02 1.31e-01 1.13e+05  -1.0 1.23e-01 -10.7 4.28e-03 1.93e-01h  1
  16  4.0022352e+02 1.10e-01 1.53e+05  -1.0 1.25e-01 -11.2 3.12e-03 1.56e-01h  1
  17  4.0042048e+02 9.43e-02 1.30e+05  -1.0 1.14e-01 -11.6 3.73e-02 1.46e-01h  1
  18  4.0060714e+02 7.90e-02 7.63e+04  -1.0 8.67e-02 -12.1 7.32e-02 1.62e-01h  1
  19  4.0089211e+02 5.57e-02 9.60e+05  -1.0 3.70e-02 -12.6 5.83e-03 2.95e-01h  1
iter    objective    inf_pr   inf_du lg(mu)  ||d||  lg(rg) alpha_du alpha_pr  ls
  20  4.0105461e+02 4.24e-02 1.30e+06  -1.0 3.33e-02 -13.1 4.98e-03 2.39e-01h  1
  21  4.0113735e+02 3.57e-02 1.09e+06  -1.0 3.97e-02 -13.5 1.48e-02 1.59e-01h  1
  22  4.0120101e+02 3.05e-02 8.02e+05  -1.0 3.68e-02 -14.0 1.22e-02 1.46e-01h  1
  23  4.0125704e+02 2.59e-02 1.08e+06  -1.0 3.05e-02 -14.5 2.66e-03 1.50e-01h  1
  24  4.0129643e+02 2.27e-02 1.27e+06  -1.0 3.17e-02 -15.0 2.16e-03 1.25e-01h  1
  25  4.0132886e+02 2.00e-02 1.12e+06  -1.0 2.97e-02 -14.5 1.18e-02 1.17e-01h  1
  26  4.0135605e+02 1.78e-02 8.84e+05  -1.0 2.77e-02 -14.1 5.21e-02 1.11e-01h  1
  27  4.0140072e+02 1.41e-02 2.12e+06  -1.0 1.27e-02 -14.6 3.78e-03 2.05e-01h  1
  28  4.0143938e+02 1.10e-02 6.00e+06  -1.0 9.14e-03 -14.2 4.04e-03 2.24e-01h  1
Reallocating memory for MA57: lfact (1899166)
  29  4.0145709e+02 9.52e-03 5.21e+06  -1.0 1.27e-02 -14.7 1.17e-02 1.32e-01h  1
iter    objective    inf_pr   inf_du lg(mu)  ||d||  lg(rg) alpha_du alpha_pr  ls
  30  4.0146472e+02 8.90e-03 4.65e+06  -1.0 1.11e-02 -14.2 7.18e-03 6.55e-02f  2
  31  4.0150974e+02 5.22e-03 2.77e+06  -1.0 1.17e-03 -14.7 1.00e+00 4.14e-01h  1
Reallocating memory for MA57: lfact (4564680)
  32  4.0151893e+02 4.47e-03 2.35e+06  -1.0 1.07e-03 -14.3 3.33e-02 1.44e-01f  3
Reallocating memory for MA57: lfact (4981674)
  33  4.0155121e+02 1.83e-03 1.04e+06  -1.0 7.31e-04 -14.8 1.00e+00 5.91e-01h  1
Reallocating memory for MA57: lfact (6168993)
  34  4.0155281e+02 1.70e-03 2.13e+06  -1.0 3.88e-04 -14.3 1.00e+00 7.17e-02f  4
  35  4.0156907e+02 3.66e-04 7.69e+05  -1.0 5.32e-03 -14.8 6.54e-01 7.84e-01h  1
  36  4.0156942e+02 3.38e-04 7.49e+05  -1.0 2.09e-03 -14.4 1.11e-01 7.64e-02f  4
  37  4.0157221e+02 1.10e-04 3.46e+06  -1.0 3.09e-01 -14.9 1.00e+00 6.75e-01h  1
  38  4.0157274e+02 6.66e-05 5.02e+06  -1.0 6.06e+02 -14.4 4.60e-01 3.94e-01f  2
  39  4.0157355e+02 5.94e-10 1.00e-06  -1.0 1.00e+04 -14.9 1.00e+00 1.00e+00h  1
iter    objective    inf_pr   inf_du lg(mu)  ||d||  lg(rg) alpha_du alpha_pr  ls
  40  5.4204934e+01 6.97e-11 1.03e+05  -8.6 1.23e+03 -14.5 1.00e+00 9.93e-01f  1
  41  1.3584181e+01 9.55e-10 3.30e+03  -8.6 8.90e-02 -14.1 1.00e+00 9.68e-01f  1
  42  3.3547445e+00 9.57e-10 4.35e+01  -8.6 4.61e-02 -14.5 1.00e+00 9.87e-01f  1
  43  8.2841094e-01 4.50e-10 3.94e-02  -8.6 1.83e+00 -15.0 1.00e+00 9.99e-01f  1
  44  2.0683623e-01 6.95e-10 2.66e-14  -8.6 1.13e-02 -14.6 1.00e+00 1.00e+00f  1
  45  5.1633561e-02 1.66e-09 2.67e-14  -8.6 5.63e-03 -14.2 1.00e+00 1.00e+00f  1
  46  1.2832921e-02 5.75e-13 2.68e-14  -8.6 2.81e-03 -14.6 1.00e+00 1.00e+00f  1
  47  3.1327737e-03 9.97e-10 2.67e-14  -8.6 1.41e-03 -14.2 1.00e+00 1.00e+00f  1
  48  7.0774457e-04 1.02e-09 2.67e-14  -8.6 7.03e-04 -14.7 1.00e+00 1.00e+00f  1
  49  1.0149621e-04 1.74e-09 2.67e-14  -8.6 3.50e-04 -14.3 1.00e+00 1.00e+00f  1
iter    objective    inf_pr   inf_du lg(mu)  ||d||  lg(rg) alpha_du alpha_pr  ls
  50 -5.0041313e-05 6.77e-11 2.66e-14  -8.6 1.73e-04 -14.7 1.00e+00 1.00e+00f  1
  51 -9.2788771e-05 2.04e-09 1.07e-14  -9.0 8.78e-05 -14.3 1.00e+00 1.00e+00f  1

Number of Iterations....: 51

                                   (scaled)                 (unscaled)
Objective...............:  -9.2788771039079189e-05   -9.2788771039079189e-05
Dual infeasibility......:   1.0658141036401503e-14    1.0658141036401503e-14
Constraint violation....:   2.0388624122347210e-09    2.0388624122347210e-09
Complementarity.........:   7.1679608794119618e-09    7.1679608794119618e-09
Overall NLP error.......:   7.1679608794119618e-09    7.1679608794119618e-09


Number of objective function evaluations             = 62
Number of objective gradient evaluations             = 52
Number of equality constraint evaluations            = 62
Number of inequality constraint evaluations          = 0
Number of equality constraint Jacobian evaluations   = 52
Number of inequality constraint Jacobian evaluations = 0
Number of Lagrangian Hessian evaluations             = 51
Total CPU secs in IPOPT (w/o function evaluations)   =     24.517
Total CPU secs in NLP function evaluations           =      2.209

EXIT: Optimal Solution Found.

************************ CUTEst statistics ************************


 Package used            :  IPOPT
 Problem                 :  A5ESSNDL  
 # variables             =           45006
 # constraints           =           15002
 # objective functions   =        0.1150000E+03
 # objective gradients   =        0.5300000E+02
 # objective Hessians    =        0.5200000E+02
 # Hessian-vector prdct  =        0.0000000E+00
 # constraints functions =        0.1160000E+03
 # constraints gradients =        0.5400000E+02
 # constraints Hessians  =        0.5200000E+02
 Exit code               =               0
 Final f                 =       -9.2788771039079189D-05
 Bounds feasibility      =        9.9089658301076722D-09
 Set up time             =            0.73 seconds
 Solve time              =           52.15 seconds


******************************************************************

